(set-option :produce-models true)
(set-logic QF_UF)
(declare-fun p36() Bool)
(declare-fun p5() Bool)
(declare-fun p19() Bool)
(declare-fun p21() Bool)
(declare-fun p34() Bool)
(declare-fun p0() Bool)
(declare-fun p37() Bool)
(declare-fun p13() Bool)
(declare-fun p7() Bool)
(declare-fun p22() Bool)
(declare-fun p23() Bool)
(declare-fun p1() Bool)
(declare-fun p6() Bool)
(declare-fun p29() Bool)
(declare-fun p15() Bool)
(declare-fun p35() Bool)
(declare-fun p18() Bool)
(declare-fun p38() Bool)
(declare-fun p11() Bool)
(declare-fun p10() Bool)
(declare-fun p31() Bool)
(declare-fun p30() Bool)
(declare-fun p28() Bool)
(declare-fun p27() Bool)
(declare-fun p25() Bool)
(declare-fun p33() Bool)
(declare-fun p16() Bool)
(declare-fun p2() Bool)
(declare-fun p20() Bool)
(declare-fun p24() Bool)
(declare-fun p12() Bool)
(declare-fun p26() Bool)
(declare-fun p3() Bool)
(declare-fun p9() Bool)
(declare-fun p4() Bool)
(declare-fun p17() Bool)
(declare-fun p32() Bool)
(declare-fun p14() Bool)
(declare-fun p8() Bool)
(declare-fun p39() Bool)
(assert
(and (or p36 (not p5) p19) (or (not p21) p34 p0) (or p19 (not p37) (not p13)) (or p7 p34 p22) (or p22 (not p22) (not p5)) (or p23 p13 p1) (or p6 p36 (not p29)) (or (not p15) (not p35) (not p37)) (or p36 p36 (not p18)) (or p38 p1 p11) (or p6 (not p10) p31) (or (not p30) (not p22) p28) (or p30 p27 p25) (or p31 p33 p36) (or p35 (not p28) p16) (or (not p28) p2 (not p22)) (or (not p33) p20 p24) (or p15 (not p12) (not p10)) (or p38 (not p12) p2) (or p31 (not p23) (not p10)) (or (not p0) p34 (not p35)) (or (not p26) (not p33) (not p12)) (or p23 p11 (not p27)) (or p5 (not p7) (not p28)) (or (not p6) p30 (not p26)) (or p25 p19 (not p34)) (or (not p3) (not p9) p37) (or (not p37) (not p4) (not p9)) (or p2 (not p33) p3) (or (not p1) p11 p18) (or p30 p3 p17) (or (not p37) (not p32) (not p17)) (or (not p22) (not p30) (not p0)) (or (not p30) (not p20) (not p23)) (or (not p27) p17 p37) (or (not p6) p2 (not p22)) (or p37 (not p26) p30) (or (not p15) (not p0) p30) (or p12 p26 p31) (or p35 p4 p19) (or (not p23) (not p25) (not p2)) (or p28 (not p25) p28) (or p3 p22 p13) (or p16 p10 (not p7)) (or p3 p13 (not p1)) (or p10 p28 p23) (or (not p28) p6 (not p3)) (or (not p14) (not p14) p8) (or (not p25) p13 (not p3)) (or (not p7) p23 (not p5)) (or (not p4) p26 p31) (or p12 (not p23) (not p36)) (or p33 p32 (not p11)) (or p25 p35 (not p18)) (or (not p1) (not p8) p20) (or p32 p15 (not p2)) (or (not p20) p12 (not p7)) (or (not p33) p36 p19) (or p39 (not p29) p25) (or p13 (not p12) (not p30)) (or (not p6) p32 p32) (or p22 p12 (not p8)) (or (not p20) (not p2) p21) (or p30 (not p31) p3) (or (not p30) (not p2) p5) (or p28 (not p15) p23) (or (not p33) p29 (not p34)) (or p24 (not p0) (not p10)) (or (not p3) (not p5) p1) (or (not p20) p32 (not p20)) (or (not p6) p34 (not p27)) (or (not p5) (not p27) (not p16)) (or (not p27) p35 p30) (or p21 p18 p12) (or (not p32) p12 (not p35)) (or p20 p12 (not p13)) (or p26 p34 (not p37)) (or p8 (not p2) p9) (or p26 (not p21) (not p2)) (or p37 p14 p16) (or p4 p22 (not p12)) (or (not p17) (not p25) p16) (or (not p5) p23 (not p22)) (or p34 (not p26) (not p32)) (or p39 p27 p12) (or p2 (not p31) (not p6)) (or (not p5) p13 p37) (or p25 p36 (not p36)) (or p9 (not p37) (not p21)) (or (not p18) (not p11) (not p26)) (or (not p9) p9 (not p35)) (or (not p29) (not p7) p36) (or p27 p30 (not p39)) (or (not p19) (not p39) p20) (or p38 p20 (not p28)) (or (not p11) (not p32) (not p8)) (or p24 (not p3) p22) (or p26 (not p39) (not p28)) (or (not p0) (not p13) p14) (or (not p17) (not p9) (not p37)) (or (not p28) p11 (not p10)) (or (not p0) (not p25) (not p37)) (or (not p38) (not p14) (not p11)) (or p10 (not p36) (not p23)) (or p4 (not p29) p33) (or (not p21) p7 p16) (or (not p34) p10 (not p35)) (or p38 (not p16) (not p25)) (or p31 p5 p26) (or p4 (not p33) p38) (or (not p10) p4 p34) (or (not p14) (not p32) p18) (or p15 p3 p0) (or (not p26) (not p7) (not p37)) (or p37 (not p36) (not p3)) (or (not p37) (not p6) p17) (or (not p7) (not p8) (not p32)) (or (not p8) (not p3) p4) (or (not p21) p20 p9) (or p18 (not p32) (not p32)) (or (not p1) (not p29) p8) (or (not p17) (not p29) (not p2)) (or p37 p3 (not p21)) (or p8 p17 p6) (or (not p3) (not p1) p12) (or (not p30) p16 (not p1)) (or p31 (not p11) (not p32)) (or p39 (not p1) (not p13)) (or (not p39) (not p7) (not p23)) (or (not p37) (not p33) p25) (or p29 (not p4) (not p15)) (or (not p29) (not p7) (not p28)) (or (not p29) (not p33) (not p20)) (or (not p32) p15 (not p7)) (or p26 p20 p6) (or (not p22) (not p18) (not p22)) (or (not p38) p5 p7) (or p1 (not p13) (not p36)) (or (not p4) p34 p10) (or (not p10) p32 (not p32)) (or (not p6) p19 p4) (or p35 (not p35) (not p26)) (or (not p0) p15 (not p7)) (or (not p5) (not p30) (not p10)) (or (not p29) p32 p10) (or p21 p20 p10) (or (not p25) p32 (not p18)) (or (not p17) p23 (not p4)) (or p3 p10 (not p35)) (or p1 p26 (not p17)) (or (not p22) (not p27) p12) (or p31 p23 (not p17)) (or (not p23) (not p24) p28) (or (not p1) (not p6) (not p17)) (or p16 p20 p20) (or p4 (not p15) (not p24)) (or p36 (not p20) (not p37)) (or p33 p3 (not p20)) (or (not p20) (not p4) (not p31)) (or (not p39) p20 (not p15)) (or p24 (not p16) (not p4)) (or p23 p16 p35) (or p11 p15 (not p39)) (or p0 p0 p34) (or (not p0) (not p35) (not p28)) (or p39 (not p14) p13) (or (not p36) p23 p5) (or p4 p18 p16) (or (not p36) p30 p20) (or p20 p23 (not p20)) (or p26 (not p24) (not p20)))
)
(check-sat)
(get-model)
